15
13
1 3 11 7 4 8
5
12 5 14 3 0
6 5 3 0 1 13 11 10
13 10 1 6 8
12 9 14 2 11 0 5 7 13 10 4 6
1 12 14 10 4 6 13 2 9
13 3 5
7 11 14 9 4 13 10 8 1 12
3 8 9 13 2 0 5 1 14 7 6 11 4 10 12
3 1 7 11 8 12 14 2 6 5 13 4 10
2 1 5 12 3 9 6 0 11 7
13 1 7
